VER
4

OBJSENSE
MIN

VAR
3 1
F 3

CON
15 3
L+ 2
SVECQE 12
L= 1

OBJACOORD
3
0 -0.5334951652730546
1 -0.13471696328340294
2 0.5

ACOORD
21
0 0 1.0
1 1 1.0
2 2 1.0
4 0 0.6418828116623764
4 1 0.04470483199374835
5 0 0.3066747252965127
5 1 0.15783075764011534
6 0 0.35811718833762374
6 1 0.9552951680062517
8 0 -0.12901326518015638
8 1 -0.0481217545394986
9 0 0.6418828116623764
9 1 0.04470483199374835
10 0 0.12901326518015638
10 1 0.0481217545394986
12 0 0.3066747252965127
12 1 0.15783075764011534
13 0 0.35811718833762374
13 1 0.9552951680062517
14 0 1.0
14 1 1.0

BCOORD
2
3 -1.0
14 1.0
